N=30;
start=[|
2, 0, 10, 0, 0, 0, 26, 0, 21, 7, 8, 22, 9, 6, 0, 0, 14, 16, 0, 15, 4, 23, 0, 25, 13, 12, 0, 0, 0, 29|
0, 30, 28, 26, 0, 0, 9, 11, 2, 20, 24, 0, 21, 15, 0, 0, 16, 0, 14, 17, 0, 0, 10, 0, 0, 0, 5, 4, 29, 27|
0, 0, 16, 3, 0, 0, 0, 2, 0, 0, 20, 8, 12, 19, 27, 22, 28, 0, 7, 0, 0, 0, 24, 23, 14, 26, 21, 0, 17, 5|
0, 10, 0, 4, 8, 12, 0, 29, 0, 0, 0, 0, 22, 0, 0, 0, 0, 13, 25, 16, 5, 20, 2, 1, 7, 23, 0, 15, 19, 6|
26, 12, 24, 0, 9, 18, 16, 23, 0, 0, 10, 21, 11, 29, 0, 0, 0, 15, 17, 22, 0, 0, 20, 0, 5, 0, 0, 28, 0, 0|
8, 23, 0, 0, 13, 7, 0, 18, 0, 26, 0, 0, 5, 2, 0, 20, 17, 22, 1, 14, 12, 0, 25, 15, 11, 0, 0, 0, 0, 0|
0, 16, 22, 14, 4, 0, 0, 19, 0, 13, 0, 15, 1, 23, 0, 11, 0, 26, 0, 0, 6, 30, 0, 21, 0, 9, 12, 18, 0, 0|
1, 24, 9, 0, 28, 10, 12, 5, 20, 0, 0, 0, 0, 27, 21, 14, 0, 0, 11, 0, 23, 15, 30, 0, 19, 0, 17, 0, 0, 18|
5, 25, 26, 0, 0, 9, 4, 0, 28, 10, 21, 0, 0, 0, 0, 0, 24, 0, 0, 0, 0, 13, 29, 14, 16, 0, 23, 12, 22, 3|
0, 1, 4, 0, 30, 24, 29, 0, 17, 0, 0, 7, 14, 0, 0, 8, 2, 9, 18, 25, 27, 0, 0, 0, 10, 6, 0, 0, 15, 11|
30, 27, 0, 2, 0, 19, 3, 0, 24, 0, 12, 18, 0, 0, 13, 23, 0, 11, 0, 9, 15, 0, 1, 0, 0, 0, 4, 5, 26, 25|
0, 0, 0, 0, 12, 0, 24, 0, 0, 18, 11, 17, 26, 0, 7, 0, 4, 29, 15, 10, 9, 2, 8, 0, 0, 16, 27, 0, 23, 0|
24, 0, 20, 0, 7, 8, 0, 0, 13, 16, 2, 0, 0, 26, 14, 29, 0, 12, 4, 0, 0, 1, 0, 0, 3, 11, 28, 0, 27, 15|
0, 0, 0, 6, 0, 23, 0, 0, 19, 29, 0, 0, 0, 17, 5, 24, 18, 27, 3, 30, 16, 0, 11, 12, 4, 13, 0, 21, 0, 7|
0, 0, 8, 11, 0, 28, 0, 0, 0, 0, 0, 19, 10, 0, 23, 18, 25, 0, 24, 26, 21, 0, 5, 6, 0, 0, 30, 3, 16, 20|
22, 0, 0, 17, 0, 25, 11, 10, 0, 28, 13, 16, 27, 0, 24, 1, 5, 0, 2, 6, 19, 26, 0, 0, 0, 0, 9, 0, 7, 0|
17, 20, 18, 0, 0, 0, 0, 3, 11, 0, 0, 9, 25, 0, 26, 15, 23, 28, 10, 0, 0, 21, 4, 0, 30, 0, 29, 7, 0, 1|
0, 0, 0, 28, 6, 15, 0, 30, 10, 12, 16, 11, 17, 0, 8, 13, 27, 4, 0, 0, 0, 19, 0, 0, 0, 22, 0, 29, 20, 0|
3, 0, 12, 0, 29, 4, 21, 6, 26, 22, 23, 27, 0, 0, 2, 0, 0, 19, 8, 5, 0, 18, 16, 30, 0, 0, 0, 17, 0, 0|
9, 8, 2, 27, 3, 0, 10, 0, 0, 0, 0, 29, 0, 25, 17, 0, 7, 21, 13, 0, 24, 28, 0, 20, 18, 1, 0, 0, 11, 0|
23, 0, 14, 24, 27, 29, 20, 28, 8, 4, 0, 0, 0, 0, 16, 12, 0, 7, 0, 0, 0, 0, 15, 18, 1, 17, 0, 6, 0, 30|
27, 0, 5, 7, 21, 22, 0, 20, 0, 30, 14, 0, 0, 13, 0, 6, 0, 0, 9, 11, 1, 0, 0, 10, 0, 4, 26, 23, 0, 0|
0, 0, 13, 29, 23, 2, 22, 0, 0, 17, 0, 6, 7, 16, 0, 0, 9, 0, 0, 18, 28, 0, 0, 24, 0, 0, 14, 10, 25, 21|
21, 14, 6, 0, 0, 0, 7, 8, 0, 0, 15, 2, 0, 0, 9, 26, 0, 0, 16, 13, 29, 12, 0, 5, 0, 20, 1, 0, 4, 23|
0, 22, 0, 21, 0, 0, 0, 25, 3, 5, 0, 0, 8, 28, 0, 0, 11, 0, 0, 24, 30, 7, 19, 16, 17, 15, 0, 9, 2, 0|
16, 15, 17, 19, 0, 13, 0, 1, 27, 0, 9, 0, 28, 18, 0, 0, 0, 0, 23, 29, 25, 4, 0, 0, 12, 5, 0, 0, 14, 0|
11, 3, 0, 0, 19, 0, 17, 15, 14, 27, 1, 0, 0, 0, 20, 0, 26, 10, 0, 8, 0, 0, 9, 2, 23, 18, 0, 16, 0, 0|
0, 19, 0, 30, 0, 0, 1, 0, 29, 0, 28, 0, 0, 12, 22, 2, 20, 24, 0, 0, 14, 8, 0, 0, 0, 3, 11, 27, 13, 26|
14, 26, 0, 22, 25, 0, 0, 0, 6, 0, 7, 1, 19, 8, 0, 0, 3, 5, 0, 0, 0, 11, 0, 0, 20, 28, 2, 13, 18, 16|
0, 0, 0, 23, 18, 0, 2, 9, 16, 25, 0, 12, 24, 4, 11, 27, 0, 0, 0, 0, 0, 29, 13, 7, 6, 0, 22, 0, 0, 28|];
